Welcome to the CBC MILP Solver 
Version: 2.10.7 
Build Date: Feb 14 2022 

command line - cbc inputs/new_no_tr/order/triang7_3_up_right_input.lp sec 1800 solve solu solutions/new_no_tr/triang7_3_up_right_input.lp (default strategy 1)
seconds was changed from 1e+100 to 1800
Continuous objective value is 253.106 - 0.18 seconds
Cgl0002I 115 variables fixed
Cgl0003I 0 fixed, 14 tightened bounds, 565 strengthened rows, 0 substitutions
Cgl0003I 0 fixed, 16 tightened bounds, 347 strengthened rows, 0 substitutions
Cgl0003I 0 fixed, 14 tightened bounds, 271 strengthened rows, 0 substitutions
Cgl0003I 0 fixed, 6 tightened bounds, 155 strengthened rows, 0 substitutions
Cgl0003I 0 fixed, 4 tightened bounds, 76 strengthened rows, 0 substitutions
Cgl0003I 0 fixed, 1 tightened bounds, 20 strengthened rows, 0 substitutions
Cgl0003I 0 fixed, 2 tightened bounds, 38 strengthened rows, 0 substitutions
Cgl0003I 0 fixed, 1 tightened bounds, 30 strengthened rows, 0 substitutions
Cgl0004I processed model has 2708 rows, 939 columns (939 integer (910 of which binary)) and 8980 elements
Cutoff increment increased from 1e-05 to 0.9999
Cbc0045I 1 integer variables out of 939 objects (939 integer) have cost of 1 - high priority
Cbc0045I branch on satisfied Y create fake objective Y random cost Y
Cbc0038I Initial state - 494 integers unsatisfied sum - 130.248
Cbc0038I Pass   1: suminf.   65.05462 (458) obj. 330.181 iterations 999
Cbc0038I Pass   2: suminf.   47.29964 (440) obj. 342.843 iterations 430
Cbc0038I Pass   3: suminf.   45.63478 (458) obj. 340.435 iterations 246
Cbc0038I Pass   4: suminf.   41.12013 (450) obj. 346.668 iterations 176
Cbc0038I Pass   5: suminf.   42.05450 (443) obj. 349.668 iterations 115
Cbc0038I Pass   6: suminf.   43.90169 (415) obj. 357.315 iterations 269
Cbc0038I Pass   7: suminf.   41.41329 (440) obj. 355.903 iterations 204
Cbc0038I Pass   8: suminf.   38.16492 (457) obj. 351.461 iterations 401
Cbc0038I Pass   9: suminf.   37.70069 (472) obj. 350.304 iterations 127
Cbc0038I Pass  10: suminf.   45.16427 (438) obj. 350.515 iterations 269
Cbc0038I Pass  11: suminf.   42.93226 (469) obj. 347.784 iterations 199
Cbc0038I Pass  12: suminf.   42.80007 (411) obj. 373.646 iterations 419
Cbc0038I Pass  13: suminf.   41.36953 (442) obj. 366.166 iterations 225
Cbc0038I Pass  14: suminf.   40.81505 (456) obj. 399.681 iterations 155
Cbc0038I Pass  15: suminf.   40.93521 (456) obj. 398.896 iterations 131
Cbc0038I Pass  16: suminf.   40.60915 (414) obj. 401.647 iterations 236
Cbc0038I Pass  17: suminf.   38.53536 (440) obj. 397.325 iterations 198
Cbc0038I Pass  18: suminf.   38.58110 (443) obj. 397.344 iterations 6
Cbc0038I Pass  19: suminf.   42.27307 (355) obj. 350.768 iterations 485
Cbc0038I Pass  20: suminf.   39.20286 (364) obj. 352.269 iterations 108
Cbc0038I Pass  21: suminf.   37.60528 (356) obj. 352.36 iterations 65
Cbc0038I Pass  22: suminf.   38.18365 (351) obj. 355.667 iterations 25
Cbc0038I Pass  23: suminf.   35.35043 (319) obj. 448.613 iterations 397
Cbc0038I Pass  24: suminf.   32.85510 (304) obj. 466.902 iterations 95
Cbc0038I Pass  25: suminf.   33.63174 (284) obj. 447.398 iterations 282
Cbc0038I Pass  26: suminf.   33.05970 (271) obj. 458.79 iterations 136
Cbc0038I Pass  27: suminf.   32.22989 (283) obj. 445.778 iterations 30
Cbc0038I Pass  28: suminf.   30.78524 (297) obj. 422.113 iterations 212
Cbc0038I Pass  29: suminf.   29.22618 (303) obj. 426.548 iterations 85
Cbc0038I Pass  30: suminf.   28.65163 (244) obj. 403.179 iterations 230
Cbc0038I Pass  31: suminf.   27.24292 (223) obj. 395.964 iterations 84
Cbc0038I Pass  32: suminf.   24.62315 (203) obj. 381.241 iterations 282
Cbc0038I Pass  33: suminf.   22.66873 (204) obj. 400 iterations 33
Cbc0038I Pass  34: suminf.   22.39226 (202) obj. 400 iterations 5
Cbc0038I Pass  35: suminf.   21.00294 (221) obj. 400.656 iterations 41
Cbc0038I Pass  36: suminf.   15.73048 (132) obj. 400 iterations 284
Cbc0038I Pass  37: suminf.   14.03129 (136) obj. 400 iterations 63
Cbc0038I Pass  38: suminf.   13.81545 (137) obj. 400 iterations 7
Cbc0038I Pass  39: suminf.   12.76564 (155) obj. 400 iterations 50
Cbc0038I Pass  40: suminf.    9.87049 (123) obj. 400 iterations 157
Cbc0038I Pass  41: suminf.    9.54636 (105) obj. 400 iterations 43
Cbc0038I Pass  42: suminf.    9.39011 (80) obj. 400 iterations 246
Cbc0038I Pass  43: suminf.    2.74208 (60) obj. 400 iterations 58
Cbc0038I Pass  44: suminf.    1.29177 (27) obj. 400 iterations 292
Cbc0038I Pass  45: suminf.    1.16997 (28) obj. 400 iterations 15
Cbc0038I Pass  46: suminf.    0.00000 (0) obj. 400 iterations 94
Cbc0038I Solution found of 400
Cbc0038I Cleaned solution of 400
Cbc0038I Before mini branch and bound, 140 integers at bound fixed and 0 continuous
Cbc0038I Mini branch and bound did not improve solution (1.68 seconds)
Cbc0038I Round again with cutoff of 384.411
Cbc0038I Pass  47: suminf.   65.05462 (458) obj. 330.181 iterations 0
Cbc0038I Pass  48: suminf.   47.29964 (440) obj. 342.843 iterations 367
Cbc0038I Pass  49: suminf.   45.63478 (458) obj. 340.435 iterations 276
Cbc0038I Pass  50: suminf.   41.12013 (450) obj. 346.668 iterations 149
Cbc0038I Pass  51: suminf.   42.05450 (443) obj. 349.668 iterations 119
Cbc0038I Pass  52: suminf.   43.88812 (401) obj. 356.966 iterations 291
Cbc0038I Pass  53: suminf.   42.98924 (419) obj. 356.603 iterations 124
Cbc0038I Pass  54: suminf.   44.60749 (437) obj. 364.43 iterations 391
Cbc0038I Pass  55: suminf.   40.57232 (463) obj. 356.666 iterations 160
Cbc0038I Pass  56: suminf.   40.96288 (464) obj. 360.481 iterations 103
Cbc0038I Pass  57: suminf.   40.24072 (463) obj. 359.038 iterations 78
Cbc0038I Pass  58: suminf.   40.66654 (431) obj. 351.479 iterations 423
Cbc0038I Pass  59: suminf.   39.29920 (444) obj. 353.22 iterations 129
Cbc0038I Pass  60: suminf.   39.52796 (464) obj. 353.914 iterations 22
Cbc0038I Pass  61: suminf.   45.61647 (403) obj. 361.287 iterations 378
Cbc0038I Pass  62: suminf.   41.10020 (458) obj. 370.309 iterations 263
Cbc0038I Pass  63: suminf.   39.56617 (473) obj. 381.456 iterations 113
Cbc0038I Pass  64: suminf.   45.73409 (394) obj. 384.411 iterations 263
Cbc0038I Pass  65: suminf.   42.40675 (423) obj. 384.411 iterations 147
Cbc0038I Pass  66: suminf.   39.54839 (436) obj. 384.411 iterations 110
Cbc0038I Pass  67: suminf.   40.94461 (415) obj. 384.411 iterations 192
Cbc0038I Pass  68: suminf.   39.88522 (427) obj. 384.411 iterations 57
Cbc0038I Pass  69: suminf.   38.31806 (422) obj. 384.411 iterations 173
Cbc0038I Pass  70: suminf.   39.38078 (415) obj. 384.411 iterations 95
Cbc0038I Pass  71: suminf.   37.92220 (429) obj. 384.411 iterations 200
Cbc0038I Pass  72: suminf.   38.76359 (436) obj. 384.411 iterations 56
Cbc0038I Pass  73: suminf.   44.11841 (379) obj. 384.411 iterations 273
Cbc0038I Pass  74: suminf.   40.98420 (421) obj. 384.411 iterations 154
Cbc0038I Pass  75: suminf.   38.38633 (422) obj. 384.411 iterations 105
Cbc0038I Pass  76: suminf.   38.32202 (424) obj. 384.411 iterations 48
Cbc0038I Pass  77: suminf.   39.74499 (417) obj. 384.411 iterations 215
Cbc0038I Pass  78: suminf.   40.32605 (434) obj. 384.411 iterations 172
Cbc0038I Pass  79: suminf.   43.52940 (388) obj. 384.411 iterations 269
Cbc0038I Pass  80: suminf.   38.06467 (407) obj. 384.411 iterations 286
Cbc0038I Pass  81: suminf.   43.45155 (357) obj. 384.411 iterations 407
Cbc0038I Pass  82: suminf.   40.35214 (346) obj. 384.411 iterations 169
Cbc0038I Pass  83: suminf.   38.81877 (344) obj. 384.411 iterations 88
Cbc0038I Pass  84: suminf.   34.37770 (296) obj. 384.411 iterations 279
Cbc0038I Pass  85: suminf.   32.55587 (290) obj. 384.411 iterations 140
Cbc0038I Pass  86: suminf.   32.26942 (293) obj. 384.411 iterations 46
Cbc0038I Pass  87: suminf.   27.83629 (244) obj. 384.411 iterations 292
Cbc0038I Pass  88: suminf.   27.55195 (249) obj. 384.411 iterations 48
Cbc0038I Pass  89: suminf.   27.13481 (219) obj. 384.411 iterations 290
Cbc0038I Pass  90: suminf.   26.48834 (214) obj. 384.411 iterations 89
Cbc0038I Pass  91: suminf.   26.53038 (211) obj. 384.411 iterations 51
Cbc0038I Pass  92: suminf.   21.55018 (167) obj. 384.411 iterations 230
Cbc0038I Pass  93: suminf.   21.13625 (188) obj. 384.411 iterations 55
Cbc0038I Pass  94: suminf.   18.95333 (164) obj. 384.411 iterations 43
Cbc0038I Pass  95: suminf.   18.23639 (163) obj. 384.411 iterations 155
Cbc0038I Pass  96: suminf.   14.96231 (150) obj. 384.411 iterations 158
Cbc0038I Pass  97: suminf.   14.86770 (150) obj. 384.411 iterations 12
Cbc0038I Pass  98: suminf.   13.50503 (115) obj. 384.411 iterations 212
Cbc0038I Pass  99: suminf.   12.26513 (170) obj. 384.411 iterations 115
Cbc0038I Pass 100: suminf.   10.33026 (146) obj. 384.411 iterations 128
Cbc0038I Pass 101: suminf.    7.67137 (133) obj. 384.411 iterations 59
Cbc0038I Pass 102: suminf.    6.70804 (145) obj. 384.411 iterations 525
Cbc0038I Pass 103: suminf.    4.39626 (145) obj. 384.411 iterations 329
Cbc0038I Pass 104: suminf.    8.84476 (96) obj. 384.411 iterations 457
Cbc0038I Pass 105: suminf.    7.46981 (96) obj. 384.411 iterations 211
Cbc0038I Pass 106: suminf.    7.37044 (94) obj. 384.411 iterations 47
Cbc0038I Pass 107: suminf.    8.34729 (122) obj. 384.411 iterations 410
Cbc0038I Pass 108: suminf.    6.00539 (111) obj. 384.411 iterations 171
Cbc0038I Pass 109: suminf.    4.49857 (110) obj. 384.411 iterations 99
Cbc0038I Pass 110: suminf.   10.37070 (96) obj. 384.411 iterations 150
Cbc0038I Pass 111: suminf.    9.21022 (82) obj. 384.411 iterations 90
Cbc0038I Pass 112: suminf.    7.49474 (107) obj. 384.411 iterations 391
Cbc0038I Pass 113: suminf.    3.96138 (107) obj. 384.411 iterations 102
Cbc0038I Pass 114: suminf.    7.30874 (155) obj. 384.411 iterations 267
Cbc0038I Pass 115: suminf.    4.39626 (145) obj. 384.411 iterations 344
Cbc0038I Pass 116: suminf.   15.20518 (127) obj. 384.411 iterations 253
Cbc0038I Pass 117: suminf.   13.08216 (121) obj. 384.411 iterations 399
Cbc0038I Pass 118: suminf.   13.06037 (122) obj. 384.411 iterations 11
Cbc0038I Pass 119: suminf.    5.48905 (119) obj. 384.411 iterations 379
Cbc0038I Pass 120: suminf.    5.48905 (119) obj. 384.411 iterations 13
Cbc0038I Pass 121: suminf.    8.24696 (125) obj. 384.411 iterations 405
Cbc0038I Pass 122: suminf.    7.39095 (133) obj. 384.411 iterations 94
Cbc0038I Pass 123: suminf.    7.39095 (133) obj. 384.411 iterations 3
Cbc0038I Pass 124: suminf.    6.79348 (92) obj. 384.411 iterations 356
Cbc0038I Pass 125: suminf.    5.05425 (76) obj. 384.411 iterations 139
Cbc0038I Pass 126: suminf.    7.19389 (82) obj. 384.411 iterations 180
Cbc0038I Pass 127: suminf.    6.99899 (78) obj. 384.411 iterations 55
Cbc0038I Pass 128: suminf.    3.93124 (132) obj. 384.411 iterations 349
Cbc0038I Pass 129: suminf.    2.01824 (119) obj. 384.411 iterations 68
Cbc0038I Pass 130: suminf.    3.73664 (103) obj. 384.411 iterations 607
Cbc0038I Pass 131: suminf.    3.36719 (112) obj. 384.411 iterations 601
Cbc0038I Pass 132: suminf.    3.48600 (58) obj. 384.411 iterations 297
Cbc0038I Pass 133: suminf.    3.48600 (58) obj. 384.411 iterations 36
Cbc0038I Pass 134: suminf.    6.28795 (54) obj. 384.411 iterations 172
Cbc0038I Pass 135: suminf.    6.26814 (57) obj. 384.411 iterations 13
Cbc0038I Pass 136: suminf.    1.54852 (58) obj. 384.411 iterations 166
Cbc0038I Pass 137: suminf.    1.53418 (42) obj. 384.411 iterations 68
Cbc0038I Pass 138: suminf.    2.85612 (34) obj. 384.411 iterations 52
Cbc0038I Pass 139: suminf.    2.85612 (34) obj. 384.411 iterations 18
Cbc0038I Pass 140: suminf.    1.53378 (38) obj. 384.411 iterations 71
Cbc0038I Pass 141: suminf.    1.28634 (38) obj. 384.411 iterations 21
Cbc0038I Pass 142: suminf.    4.82987 (60) obj. 384.411 iterations 195
Cbc0038I Pass 143: suminf.    4.82987 (60) obj. 384.411 iterations 10
Cbc0038I Pass 144: suminf.    7.89836 (41) obj. 384.411 iterations 136
Cbc0038I Pass 145: suminf.    7.89836 (41) obj. 384.411 iterations 3
Cbc0038I Pass 146: suminf.   62.60961 (325) obj. 384.411 iterations 937
Cbc0038I No solution found this major pass
Cbc0038I Before mini branch and bound, 80 integers at bound fixed and 0 continuous
Cbc0038I Mini branch and bound did not improve solution (4.02 seconds)
Cbc0038I After 4.02 seconds - Feasibility pump exiting with objective of 400 - took 3.57 seconds
Cbc0012I Integer solution of 400 found by feasibility pump after 0 iterations and 0 nodes (4.02 seconds)
Cbc0031I 72 added rows had average density of 44.208333
Cbc0013I At root node, 72 cuts changed objective from 253.10638 to 275 in 10 passes
Cbc0014I Cut generator 0 (Probing) - 36 row cuts average 4.8 elements, 3 column cuts (3 active)  in 0.052 seconds - new frequency is 1
Cbc0014I Cut generator 1 (Gomory) - 195 row cuts average 543.7 elements, 0 column cuts (0 active)  in 0.279 seconds - new frequency is 1
Cbc0014I Cut generator 2 (Knapsack) - 1 row cuts average 2.0 elements, 0 column cuts (0 active)  in 0.015 seconds - new frequency is -100
Cbc0014I Cut generator 3 (Clique) - 0 row cuts average 0.0 elements, 0 column cuts (0 active)  in 0.013 seconds - new frequency is -100
Cbc0014I Cut generator 4 (MixedIntegerRounding2) - 0 row cuts average 0.0 elements, 0 column cuts (0 active)  in 0.011 seconds - new frequency is -100
Cbc0014I Cut generator 5 (FlowCover) - 1 row cuts average 2.0 elements, 0 column cuts (0 active)  in 0.009 seconds - new frequency is -100
Cbc0014I Cut generator 6 (TwoMirCuts) - 187 row cuts average 16.3 elements, 0 column cuts (0 active)  in 0.093 seconds - new frequency is 1
Cbc0014I Cut generator 7 (ZeroHalf) - 13 row cuts average 22.4 elements, 0 column cuts (0 active)  in 0.195 seconds - new frequency is -100
Cbc0010I After 0 nodes, 1 on tree, 400 best solution, best possible 275 (8.59 seconds)
Cbc0010I After 100 nodes, 6 on tree, 400 best solution, best possible 282 (58.65 seconds)
Cbc0038I Full problem 2708 rows 939 columns, reduced to 551 rows 169 columns
Cbc0010I After 200 nodes, 3 on tree, 400 best solution, best possible 299 (85.30 seconds)
Cbc0010I After 300 nodes, 12 on tree, 400 best solution, best possible 302 (106.63 seconds)
Cbc0010I After 400 nodes, 16 on tree, 400 best solution, best possible 302 (128.84 seconds)
Cbc0010I After 500 nodes, 9 on tree, 400 best solution, best possible 302 (153.73 seconds)
Cbc0010I After 600 nodes, 14 on tree, 400 best solution, best possible 302 (174.13 seconds)
Cbc0010I After 700 nodes, 16 on tree, 400 best solution, best possible 302 (197.45 seconds)
Cbc0010I After 800 nodes, 34 on tree, 400 best solution, best possible 302 (221.55 seconds)
Cbc0010I After 900 nodes, 31 on tree, 400 best solution, best possible 302 (236.48 seconds)
Cbc0038I Full problem 2708 rows 939 columns, reduced to 621 rows 185 columns
Cbc0010I After 1000 nodes, 22 on tree, 400 best solution, best possible 302 (258.86 seconds)
Cbc0038I Full problem 2708 rows 939 columns, reduced to 674 rows 196 columns
Cbc0010I After 1100 nodes, 12 on tree, 400 best solution, best possible 302 (280.94 seconds)
Cbc0010I After 1200 nodes, 18 on tree, 400 best solution, best possible 302 (300.80 seconds)
Cbc0010I After 1300 nodes, 3 on tree, 400 best solution, best possible 304 (319.85 seconds)
Cbc0010I After 1400 nodes, 17 on tree, 400 best solution, best possible 305 (336.30 seconds)
Cbc0010I After 1500 nodes, 9 on tree, 400 best solution, best possible 305 (350.17 seconds)
Cbc0010I After 1600 nodes, 7 on tree, 400 best solution, best possible 305 (365.71 seconds)
Cbc0010I After 1700 nodes, 12 on tree, 400 best solution, best possible 306 (378.32 seconds)
Cbc0010I After 1800 nodes, 20 on tree, 400 best solution, best possible 306 (389.47 seconds)
Cbc0010I After 1900 nodes, 18 on tree, 400 best solution, best possible 306 (401.22 seconds)
Cbc0010I After 2000 nodes, 14 on tree, 400 best solution, best possible 306 (409.65 seconds)
Cbc0010I After 2100 nodes, 12 on tree, 400 best solution, best possible 306 (423.15 seconds)
Cbc0010I After 2200 nodes, 5 on tree, 400 best solution, best possible 306 (434.29 seconds)
Cbc0010I After 2300 nodes, 15 on tree, 400 best solution, best possible 307 (446.77 seconds)
Cbc0010I After 2400 nodes, 17 on tree, 400 best solution, best possible 307 (455.68 seconds)
Cbc0010I After 2500 nodes, 6 on tree, 400 best solution, best possible 307 (465.69 seconds)
Cbc0010I After 2600 nodes, 8 on tree, 400 best solution, best possible 307 (477.27 seconds)
Cbc0010I After 2700 nodes, 10 on tree, 400 best solution, best possible 308 (488.04 seconds)
Cbc0010I After 2800 nodes, 18 on tree, 400 best solution, best possible 308 (494.83 seconds)
Cbc0010I After 2900 nodes, 14 on tree, 400 best solution, best possible 308 (508.94 seconds)
Cbc0010I After 3000 nodes, 9 on tree, 400 best solution, best possible 309 (518.91 seconds)
Cbc0010I After 3100 nodes, 9 on tree, 400 best solution, best possible 310 (527.98 seconds)
Cbc0010I After 3200 nodes, 13 on tree, 400 best solution, best possible 310 (540.01 seconds)
Cbc0010I After 3300 nodes, 18 on tree, 400 best solution, best possible 310 (549.32 seconds)
Cbc0010I After 3400 nodes, 12 on tree, 400 best solution, best possible 310 (559.54 seconds)
Cbc0010I After 3500 nodes, 12 on tree, 400 best solution, best possible 310 (568.44 seconds)
Cbc0010I After 3600 nodes, 5 on tree, 400 best solution, best possible 310 (578.47 seconds)
Cbc0010I After 3700 nodes, 9 on tree, 400 best solution, best possible 311 (592.06 seconds)
Cbc0010I After 3800 nodes, 12 on tree, 400 best solution, best possible 311 (603.33 seconds)
Cbc0010I After 3900 nodes, 10 on tree, 400 best solution, best possible 312 (614.60 seconds)
Cbc0010I After 4000 nodes, 26 on tree, 400 best solution, best possible 312 (626.39 seconds)
Cbc0010I After 4100 nodes, 22 on tree, 400 best solution, best possible 312 (636.43 seconds)
Cbc0010I After 4200 nodes, 10 on tree, 400 best solution, best possible 312 (647.50 seconds)
Cbc0010I After 4300 nodes, 13 on tree, 400 best solution, best possible 312 (654.60 seconds)
Cbc0010I After 4400 nodes, 18 on tree, 400 best solution, best possible 312 (662.33 seconds)
Cbc0010I After 4500 nodes, 11 on tree, 400 best solution, best possible 312 (669.46 seconds)
Cbc0010I After 4600 nodes, 4 on tree, 400 best solution, best possible 312 (678.77 seconds)
Cbc0010I After 4700 nodes, 18 on tree, 400 best solution, best possible 313 (687.76 seconds)
Cbc0010I After 4800 nodes, 12 on tree, 400 best solution, best possible 313 (698.48 seconds)
Cbc0038I Full problem 2708 rows 939 columns, reduced to 478 rows 146 columns
Cbc0010I After 4900 nodes, 14 on tree, 400 best solution, best possible 313 (708.53 seconds)
Cbc0010I After 5000 nodes, 16 on tree, 400 best solution, best possible 313 (717.21 seconds)
Cbc0010I After 5100 nodes, 26 on tree, 400 best solution, best possible 313 (725.49 seconds)
Cbc0010I After 5200 nodes, 18 on tree, 400 best solution, best possible 313 (736.36 seconds)
Cbc0010I After 5300 nodes, 10 on tree, 400 best solution, best possible 313 (744.02 seconds)
Cbc0038I Full problem 2708 rows 939 columns, reduced to 726 rows 213 columns
Cbc0010I After 5400 nodes, 11 on tree, 400 best solution, best possible 313 (756.66 seconds)
Cbc0010I After 5500 nodes, 6 on tree, 400 best solution, best possible 314 (766.53 seconds)
Cbc0010I After 5600 nodes, 15 on tree, 400 best solution, best possible 314 (776.72 seconds)
Cbc0010I After 5700 nodes, 14 on tree, 400 best solution, best possible 314 (783.14 seconds)
Cbc0010I After 5800 nodes, 12 on tree, 400 best solution, best possible 314 (790.71 seconds)
Cbc0010I After 5900 nodes, 9 on tree, 400 best solution, best possible 315 (800.40 seconds)
Cbc0010I After 6000 nodes, 8 on tree, 400 best solution, best possible 315 (808.59 seconds)
Cbc0010I After 6100 nodes, 18 on tree, 400 best solution, best possible 315 (819.43 seconds)
Cbc0010I After 6200 nodes, 11 on tree, 400 best solution, best possible 315 (830.60 seconds)
Cbc0010I After 6300 nodes, 16 on tree, 400 best solution, best possible 315 (841.46 seconds)
Cbc0010I After 6400 nodes, 14 on tree, 400 best solution, best possible 316 (850.02 seconds)
Cbc0010I After 6500 nodes, 14 on tree, 400 best solution, best possible 316 (854.44 seconds)
Cbc0038I Full problem 2708 rows 939 columns, reduced to 365 rows 117 columns
Cbc0010I After 6600 nodes, 13 on tree, 400 best solution, best possible 316 (860.92 seconds)
Cbc0010I After 6700 nodes, 18 on tree, 400 best solution, best possible 316 (869.05 seconds)
Cbc0010I After 6800 nodes, 17 on tree, 400 best solution, best possible 316 (874.24 seconds)
Cbc0010I After 6900 nodes, 23 on tree, 400 best solution, best possible 316 (881.90 seconds)
Cbc0010I After 7000 nodes, 13 on tree, 400 best solution, best possible 316 (890.04 seconds)
Cbc0010I After 7100 nodes, 24 on tree, 400 best solution, best possible 316 (898.11 seconds)
Cbc0038I Full problem 2708 rows 939 columns, reduced to 553 rows 176 columns
Cbc0010I After 7200 nodes, 19 on tree, 400 best solution, best possible 316 (905.68 seconds)
Cbc0010I After 7300 nodes, 17 on tree, 400 best solution, best possible 316 (913.54 seconds)
Cbc0010I After 7400 nodes, 14 on tree, 400 best solution, best possible 316 (920.74 seconds)
Cbc0010I After 7500 nodes, 8 on tree, 400 best solution, best possible 316 (930.12 seconds)
Cbc0010I After 7600 nodes, 12 on tree, 400 best solution, best possible 316 (938.22 seconds)
Cbc0010I After 7700 nodes, 10 on tree, 400 best solution, best possible 316 (945.18 seconds)
Cbc0010I After 7800 nodes, 16 on tree, 400 best solution, best possible 316 (954.14 seconds)
Cbc0010I After 7900 nodes, 9 on tree, 400 best solution, best possible 316 (960.69 seconds)
Cbc0010I After 8000 nodes, 11 on tree, 400 best solution, best possible 316 (968.00 seconds)
Cbc0010I After 8100 nodes, 7 on tree, 400 best solution, best possible 316 (976.34 seconds)
Cbc0010I After 8200 nodes, 12 on tree, 400 best solution, best possible 317 (988.92 seconds)
Cbc0010I After 8300 nodes, 24 on tree, 400 best solution, best possible 317 (996.74 seconds)
Cbc0010I After 8400 nodes, 16 on tree, 400 best solution, best possible 317 (1004.42 seconds)
Cbc0038I Full problem 2708 rows 939 columns, reduced to 559 rows 171 columns
Cbc0010I After 8500 nodes, 22 on tree, 400 best solution, best possible 317 (1015.91 seconds)
Cbc0010I After 8600 nodes, 19 on tree, 400 best solution, best possible 317 (1026.80 seconds)
Cbc0010I After 8700 nodes, 12 on tree, 400 best solution, best possible 317 (1035.76 seconds)
Cbc0010I After 8800 nodes, 14 on tree, 400 best solution, best possible 317 (1043.57 seconds)
Cbc0010I After 8900 nodes, 13 on tree, 400 best solution, best possible 317 (1052.17 seconds)
Cbc0038I Full problem 2708 rows 939 columns, reduced to 592 rows 170 columns
Cbc0010I After 9000 nodes, 19 on tree, 400 best solution, best possible 317 (1057.75 seconds)
Cbc0010I After 9100 nodes, 15 on tree, 400 best solution, best possible 317 (1068.32 seconds)
Cbc0010I After 9200 nodes, 17 on tree, 400 best solution, best possible 317 (1075.27 seconds)
Cbc0010I After 9300 nodes, 13 on tree, 400 best solution, best possible 317 (1084.19 seconds)
Cbc0010I After 9400 nodes, 2 on tree, 400 best solution, best possible 317 (1096.76 seconds)
Cbc0010I After 9500 nodes, 21 on tree, 400 best solution, best possible 318 (1103.45 seconds)
Cbc0038I Full problem 2708 rows 939 columns, reduced to 454 rows 141 columns
Cbc0010I After 9600 nodes, 19 on tree, 400 best solution, best possible 318 (1108.80 seconds)
Cbc0010I After 9700 nodes, 28 on tree, 400 best solution, best possible 318 (1113.60 seconds)
Cbc0010I After 9800 nodes, 30 on tree, 400 best solution, best possible 318 (1118.99 seconds)
Cbc0010I After 9900 nodes, 24 on tree, 400 best solution, best possible 318 (1127.62 seconds)
Cbc0010I After 10000 nodes, 26 on tree, 400 best solution, best possible 318 (1133.35 seconds)
Cbc0010I After 10100 nodes, 24 on tree, 400 best solution, best possible 318 (1141.08 seconds)
Cbc0010I After 10200 nodes, 22 on tree, 400 best solution, best possible 318 (1151.98 seconds)
Cbc0010I After 10300 nodes, 28 on tree, 400 best solution, best possible 318 (1160.24 seconds)
Cbc0010I After 10400 nodes, 19 on tree, 400 best solution, best possible 318 (1170.24 seconds)
Cbc0010I After 10500 nodes, 22 on tree, 400 best solution, best possible 318 (1178.58 seconds)
Cbc0010I After 10600 nodes, 30 on tree, 400 best solution, best possible 318 (1184.60 seconds)
Cbc0010I After 10700 nodes, 26 on tree, 400 best solution, best possible 318 (1191.30 seconds)
Cbc0010I After 10800 nodes, 16 on tree, 400 best solution, best possible 318 (1198.11 seconds)
Cbc0010I After 10900 nodes, 27 on tree, 400 best solution, best possible 318 (1204.50 seconds)
Cbc0010I After 11000 nodes, 26 on tree, 400 best solution, best possible 318 (1213.26 seconds)
Cbc0010I After 11100 nodes, 52 on tree, 400 best solution, best possible 318 (1221.45 seconds)
Cbc0010I After 11200 nodes, 65 on tree, 400 best solution, best possible 318 (1230.76 seconds)
Cbc0010I After 11300 nodes, 79 on tree, 400 best solution, best possible 318 (1237.48 seconds)
Cbc0010I After 11400 nodes, 87 on tree, 400 best solution, best possible 318 (1248.15 seconds)
Cbc0010I After 11500 nodes, 89 on tree, 400 best solution, best possible 318 (1253.93 seconds)
Cbc0010I After 11600 nodes, 94 on tree, 400 best solution, best possible 318 (1261.33 seconds)
Cbc0010I After 11700 nodes, 99 on tree, 400 best solution, best possible 318 (1266.93 seconds)
Cbc0010I After 11800 nodes, 99 on tree, 400 best solution, best possible 318 (1276.52 seconds)
Cbc0010I After 11900 nodes, 92 on tree, 400 best solution, best possible 318 (1284.51 seconds)
Cbc0010I After 12000 nodes, 98 on tree, 400 best solution, best possible 318 (1291.45 seconds)
Cbc0010I After 12100 nodes, 109 on tree, 400 best solution, best possible 318 (1298.86 seconds)
Cbc0010I After 12200 nodes, 117 on tree, 400 best solution, best possible 318 (1303.91 seconds)
Cbc0010I After 12300 nodes, 118 on tree, 400 best solution, best possible 318 (1308.55 seconds)
Cbc0010I After 12400 nodes, 116 on tree, 400 best solution, best possible 318 (1315.70 seconds)
Cbc0010I After 12500 nodes, 110 on tree, 400 best solution, best possible 318 (1322.81 seconds)
Cbc0010I After 12600 nodes, 116 on tree, 400 best solution, best possible 318 (1328.93 seconds)
Cbc0010I After 12700 nodes, 118 on tree, 400 best solution, best possible 318 (1334.92 seconds)
Cbc0010I After 12800 nodes, 119 on tree, 400 best solution, best possible 318 (1341.74 seconds)
Cbc0010I After 12900 nodes, 116 on tree, 400 best solution, best possible 318 (1349.22 seconds)
Cbc0010I After 13000 nodes, 123 on tree, 400 best solution, best possible 318 (1355.01 seconds)
Cbc0010I After 13100 nodes, 114 on tree, 400 best solution, best possible 318 (1360.34 seconds)
Cbc0010I After 13200 nodes, 106 on tree, 400 best solution, best possible 318 (1370.04 seconds)
Cbc0010I After 13300 nodes, 87 on tree, 400 best solution, best possible 318 (1377.64 seconds)
Cbc0010I After 13400 nodes, 86 on tree, 400 best solution, best possible 318 (1382.69 seconds)
Cbc0010I After 13500 nodes, 90 on tree, 400 best solution, best possible 318 (1388.36 seconds)
Cbc0010I After 13600 nodes, 82 on tree, 400 best solution, best possible 318 (1394.00 seconds)
Cbc0010I After 13700 nodes, 74 on tree, 400 best solution, best possible 318 (1401.90 seconds)
Cbc0010I After 13800 nodes, 70 on tree, 400 best solution, best possible 318 (1407.20 seconds)
Cbc0010I After 13900 nodes, 72 on tree, 400 best solution, best possible 318 (1413.66 seconds)
Cbc0010I After 14000 nodes, 62 on tree, 400 best solution, best possible 318 (1421.53 seconds)
Cbc0010I After 14100 nodes, 83 on tree, 400 best solution, best possible 318 (1427.17 seconds)
Cbc0010I After 14200 nodes, 79 on tree, 400 best solution, best possible 318 (1435.92 seconds)
Cbc0010I After 14300 nodes, 75 on tree, 400 best solution, best possible 318 (1445.60 seconds)
Cbc0010I After 14400 nodes, 80 on tree, 400 best solution, best possible 318 (1453.48 seconds)
Cbc0010I After 14500 nodes, 90 on tree, 400 best solution, best possible 318 (1458.94 seconds)
Cbc0010I After 14600 nodes, 73 on tree, 400 best solution, best possible 318 (1467.26 seconds)
Cbc0010I After 14700 nodes, 79 on tree, 400 best solution, best possible 318 (1473.49 seconds)
Cbc0010I After 14800 nodes, 78 on tree, 400 best solution, best possible 318 (1480.68 seconds)
Cbc0010I After 14900 nodes, 87 on tree, 400 best solution, best possible 318 (1489.18 seconds)
Cbc0010I After 15000 nodes, 84 on tree, 400 best solution, best possible 318 (1496.15 seconds)
Cbc0010I After 15100 nodes, 90 on tree, 400 best solution, best possible 318 (1503.74 seconds)
Cbc0010I After 15200 nodes, 92 on tree, 400 best solution, best possible 318 (1510.75 seconds)
Cbc0010I After 15300 nodes, 99 on tree, 400 best solution, best possible 318 (1518.04 seconds)
Cbc0010I After 15400 nodes, 112 on tree, 400 best solution, best possible 318 (1524.11 seconds)
Cbc0010I After 15500 nodes, 111 on tree, 400 best solution, best possible 318 (1531.40 seconds)
Cbc0010I After 15600 nodes, 107 on tree, 400 best solution, best possible 318 (1537.32 seconds)
Cbc0010I After 15700 nodes, 106 on tree, 400 best solution, best possible 318 (1546.48 seconds)
Cbc0010I After 15800 nodes, 113 on tree, 400 best solution, best possible 318 (1554.35 seconds)
Cbc0010I After 15900 nodes, 116 on tree, 400 best solution, best possible 318 (1563.75 seconds)
Cbc0010I After 16000 nodes, 122 on tree, 400 best solution, best possible 318 (1572.57 seconds)
Cbc0010I After 16100 nodes, 146 on tree, 400 best solution, best possible 318 (1581.72 seconds)
Cbc0010I After 16200 nodes, 154 on tree, 400 best solution, best possible 318 (1590.98 seconds)
Cbc0010I After 16300 nodes, 153 on tree, 400 best solution, best possible 318 (1597.46 seconds)
Cbc0010I After 16400 nodes, 146 on tree, 400 best solution, best possible 318 (1603.41 seconds)
Cbc0010I After 16500 nodes, 142 on tree, 400 best solution, best possible 318 (1608.28 seconds)
Cbc0010I After 16600 nodes, 132 on tree, 400 best solution, best possible 318 (1615.91 seconds)
Cbc0010I After 16700 nodes, 128 on tree, 400 best solution, best possible 318 (1621.16 seconds)
Cbc0038I Full problem 2708 rows 939 columns, reduced to 594 rows 193 columns
Cbc0010I After 16800 nodes, 137 on tree, 400 best solution, best possible 318 (1629.25 seconds)
Cbc0010I After 16900 nodes, 130 on tree, 400 best solution, best possible 318 (1634.84 seconds)
Cbc0010I After 17000 nodes, 127 on tree, 400 best solution, best possible 318 (1640.09 seconds)
Cbc0010I After 17100 nodes, 111 on tree, 400 best solution, best possible 318 (1647.05 seconds)
Cbc0010I After 17200 nodes, 96 on tree, 400 best solution, best possible 318 (1653.57 seconds)
Cbc0010I After 17300 nodes, 92 on tree, 400 best solution, best possible 318 (1662.49 seconds)
Cbc0010I After 17400 nodes, 72 on tree, 400 best solution, best possible 318 (1671.86 seconds)
Cbc0010I After 17500 nodes, 73 on tree, 400 best solution, best possible 318 (1677.67 seconds)
Cbc0010I After 17600 nodes, 65 on tree, 400 best solution, best possible 318 (1685.03 seconds)
Cbc0010I After 17700 nodes, 60 on tree, 400 best solution, best possible 318 (1693.55 seconds)
Cbc0010I After 17800 nodes, 56 on tree, 400 best solution, best possible 318 (1700.75 seconds)
Cbc0010I After 17900 nodes, 46 on tree, 400 best solution, best possible 318 (1707.00 seconds)
Cbc0010I After 18000 nodes, 39 on tree, 400 best solution, best possible 318 (1712.69 seconds)
Cbc0010I After 18100 nodes, 47 on tree, 400 best solution, best possible 318 (1718.74 seconds)
Cbc0010I After 18200 nodes, 45 on tree, 400 best solution, best possible 318 (1725.44 seconds)
Cbc0010I After 18300 nodes, 39 on tree, 400 best solution, best possible 318 (1733.92 seconds)
Cbc0010I After 18400 nodes, 42 on tree, 400 best solution, best possible 318 (1742.02 seconds)
Cbc0010I After 18500 nodes, 54 on tree, 400 best solution, best possible 318 (1749.46 seconds)
Cbc0010I After 18600 nodes, 47 on tree, 400 best solution, best possible 318 (1755.79 seconds)
Cbc0010I After 18700 nodes, 55 on tree, 400 best solution, best possible 318 (1761.73 seconds)
Cbc0010I After 18800 nodes, 57 on tree, 400 best solution, best possible 318 (1768.42 seconds)
Cbc0010I After 18900 nodes, 56 on tree, 400 best solution, best possible 318 (1773.66 seconds)
Cbc0010I After 19000 nodes, 44 on tree, 400 best solution, best possible 318 (1779.37 seconds)
Cbc0010I After 19100 nodes, 62 on tree, 400 best solution, best possible 318 (1786.99 seconds)
Cbc0010I After 19200 nodes, 66 on tree, 400 best solution, best possible 318 (1792.87 seconds)
Cbc0010I After 19300 nodes, 57 on tree, 400 best solution, best possible 318 (1798.29 seconds)
Cbc0020I Exiting on maximum time
Cbc0005I Partial search - best objective 400 (best possible 318), took 8350037 iterations and 19331 nodes (1799.74 seconds)
Cbc0032I Strong branching done 53874 times (3407036 iterations), fathomed 1254 nodes and fixed 10185 variables
Cbc0035I Maximum depth 85, 0 variables fixed on reduced cost
Cuts at root node changed objective from 253.106 to 275
Probing was tried 3398 times and created 187184 cuts of which 0 were active after adding rounds of cuts (8.947 seconds)
Gomory was tried 2283 times and created 2272 cuts of which 0 were active after adding rounds of cuts (4.591 seconds)
Knapsack was tried 10 times and created 1 cuts of which 0 were active after adding rounds of cuts (0.015 seconds)
Clique was tried 10 times and created 0 cuts of which 0 were active after adding rounds of cuts (0.013 seconds)
MixedIntegerRounding2 was tried 10 times and created 0 cuts of which 0 were active after adding rounds of cuts (0.011 seconds)
FlowCover was tried 10 times and created 1 cuts of which 0 were active after adding rounds of cuts (0.009 seconds)
TwoMirCuts was tried 2283 times and created 33065 cuts of which 0 were active after adding rounds of cuts (2.058 seconds)
ZeroHalf was tried 10 times and created 13 cuts of which 0 were active after adding rounds of cuts (0.195 seconds)
ImplicationCuts was tried 78 times and created 35 cuts of which 0 were active after adding rounds of cuts (0.004 seconds)

Result - Stopped on time limit

Objective value:                400.00000000
Lower bound:                    318.000
Gap:                            0.26
Enumerated nodes:               19331
Total iterations:               8350037
Time (CPU seconds):             1799.83
Time (Wallclock seconds):       1807.27

Total time (CPU seconds):       1799.84   (Wallclock seconds):       1807.28

